peakDumbCharging = 25900; 
Machine = anon_enum(16); 
machineSpeed = [3700,3700,3700,3700,3700,3700,3700,3700,3700,3700,3700,3700,3700,3700,3700,3700]; 
machineLoad = [3700,3700,3700,3700,3700,3700,3700,3700,3700,3700,3700,3700,3700,3700,3700,3700]; 
Car = anon_enum(41); 
demandCar = [2960,4880,3000,3600,5120,14080,6800,1240,8760,1600,2280,4000,7440,1240,8720,10960,7800,18000,35240,8160,3360,3680,5520,15680,14040,5360,3920,6840,10600,6640,6600,1280,6560,7160,4520,1800,1760,1960,74120,6600,11520]; 
arrivalCar = [78,69,67,64,62,61,60,59,56,56,56,55,54,53,53,50,50,50,49,47,46,45,44,43,42,42,42,40,39,39,38,38,37,36,35,34,33,33,30,25,25]; 
departureCar = [80,72,69,66,64,68,63,61,60,58,58,58,59,55,56,57,56,60,66,50,50,47,48,50,51,46,45,47,44,42,42,40,42,40,38,36,34,34,64,58,31]; 
